##############################################
##############################################
## LAMMPS lattice equi script               ##
## Written by Dr Stephen R. Yeandel         ##
## 12/05/2021                               ##
## modified by Pedro Juan Royo 22/02/24     ##
##############################################
##############################################

#############################################################################################################################
## VARIABLES ################################################################################################################
#############################################################################################################################

variable seed equal          12345     # random number seed

variable T equal             300.0     # temperature (kelvin)
variable P equal               0.0     # pressure (bar)

variable dt equal            0.001     # timestep (femtoseconds)
variable screen equal           10     # screen and writing output frequency (steps)

variable mod_ff equal            1     # set flag to use modified forcefield file (1 = yes)

variable rep equal               0     # replication flag (1 = TRUE)
variable repx equal              1     # replication factor for x
variable repy equal              1     # replication factor for y
variable repz equal              1     # replication factor for z

variable Ndeposit equal        500     # molecule deposition time (steps)
variable Nmols equal            29     # number of molecules
variable buffer equal          3.5     # molecule buffer distance (angstroms)
variable attempts equal       1000     # insertion attempts per molecule
variable molmass equal   5.887E-26     # mass of molecule (kg)
variable molatoms equal          1     # atoms per molecule

variable traj equal              1     # 1 = print traj files

#############################################################################################################################
## SYSTEM SETTINGS ##########################################################################################################
#############################################################################################################################

#define units system
units metal

#data file format
atom_style full

#processor mapping
processors * * * grid numa

#set periodicity
boundary p p p

#read data
read_data data.lmp

#replicate if requested
if "${rep} == 1" then "replicate ${repx} ${repy} ${repz}"

#############################################################################################################################
## TIME SETTINGS ############################################################################################################
#############################################################################################################################

#timestep
timestep ${dt}

#time integrator
run_style verlet

#############################################################################################################################
## FORCEFIELD SETTINGS ######################################################################################################
#############################################################################################################################

#use TI script for potentials
if "${mod_ff} == 1" then &
        "include potential_mod_K_Ow.lmp" &
else &
        "include potential.lmp"                                                                         # script for Einstein crystal

#additional options
special_bonds lj/coul 0.0 0.0 0.0								# default
pair_modify tail no										# tail correction for Ow - Ow

#slab correction
fix x_walls all wall/lj93 zlo EDGE 0.001 3.5 3.0 zhi EDGE 0.001 3.5 3.0 units box pbc yes	# wall repulsion for slabs

#############################################################################################################################
## DEPOSITION ###############################################################################################################
#############################################################################################################################

#open new log file
log deposit_log.lmp

#reset timestep
reset_timestep 0

#molecule template
molecule 1 Cl_molecule.lmp

#create groups
group mols empty

#molecule velocity estimate (times a prefactor to compensate for uniform random velocities)
variable molvel equal 0.961431066*sqrt(3*v_molatoms*v_T*1.38065E-23/v_molmass)/100

#setup a region
region everywhere block EDGE EDGE EDGE EDGE $(zlo+3.0) $(zhi-3.0) units box

#calculate deposition rate
variable deprate equal floor(v_Ndeposit/v_Nmols)

#deposit molecules
fix dep1 mols deposit ${Nmols} 0 ${deprate} ${seed} attempt ${attempts} mol 1 region everywhere near ${buffer} vx $(-v_molvel) ${molvel} vy $(-v_molvel) ${molvel} vz $(-v_molvel) ${molvel} units box

#counting number of molecules added
variable Nadded equal count(mols)/v_molatoms

#create velocities
velocity all create $T ${seed} mom yes rot yes dist gaussian

#time integration fix
fix B all nvt temp $T $T 0.1
compute_modify B_temp dynamic/dof yes

#setup thermo output
thermo ${screen}
thermo_style custom step temp press vol etotal pe ke v_Nadded
compute_modify thermo_temp dynamic/dof yes

#trajectory output
if "${traj} == 1" then "dump 1 all atom ${screen} deposit_traj.lmp.gz"

#run data collection
run ${Ndeposit}

#write new data file
write_data deposit_data.lmp nocoeff

##############################################################################################################################
### CLEAN ####################################################################################################################
##############################################################################################################################

#clean up fixes
unfix B
unfix dep1

#clean up variables
variable Nadded delete
variable deprate delete
variable molvel delete

#clean up regions
region everywhere delete

#clean up groups
group mols delete

#clean up trajectory output
if "${traj} == 1" then &
"undump 1"

#############################################################################################################################
## END SCRIPT ###############################################################################################################
#############################################################################################################################
